NAME : cgl_26.5255.tour
COMMENT : Length = 5255
COMMENT : Found by LKH-3 [Keld Helsgaun] Fri Nov  8 17:38:18 2024
TYPE : TOUR
DIMENSION : 27
TOUR_SECTION
18
17
6
13
9
11
10
7
8
12
14
15
16
3
4
5
1
2
21
20
19
22
23
24
25
26
27
-1
EOF
